NAME: toy20_uniform_seed202510286
TYPE: TSP
DIMENSION: 20
EDGE_WEIGHT_TYPE: EUC_2D
NODE_COORD_SECTION
1 460 603
2 881 138
3 601 393
4 2 988
5 965 180
6 386 699
7 818 689
8 842 55
9 453 732
10 631 998
11 29 287
12 458 558
13 951 439
14 272 388
15 692 323
16 284 41
17 78 85
18 358 20
19 152 637
20 434 614
EOF
